benchmarks_vrp/CMT1/fixed_c/CMT1_3.vrp
NAME: CMT1_3
TYPE: CVRP
COMMENT: 524.61 - Cluster Nr.3
DIMENSION: 5
CAPACITY: 160
EDGE_WEIGHT_TYPE: EUC_2D
NODE_COORD_TYPE: TWOD_COORDS
NODE_COORD_SECTION: 
2 61 33
5 51 21
1 59 15
3 30 40
4 58 27
DEPOT_SECTION: 
3
-1
DEMAND_SECTION: 
3 0
5 5
1 14
2 26
4 19
EOF
