benchmarks_vrp/CMT1/fixed_c/CMT1_3.tour
NAME: CMT1_3 solution
TYPE: TOUR
TOUR_SECTION:
3 2 4 1 5 -1
-1
EOF